1	100
27 49	40 59	52 54	7 50	35 57	83 53	4 45	64 51	20 45	50 59	24 52	29 55	33 42	54 58	41 59	9 53	77 51	13 56	39 57	61 51	36 48	88 48	51 47	0 45	16 52	31 57	56 54	75 53	89 49	44 49	49 47	98 45	76 53	32 43	67 50	8 54	69 55	74 44	72 43	73 57	96 62	2 50	85 49	79 50	71 45	10 49	95 52	22 53	81 57	57 57	78 50	58 57	53 55	30 53	70 44	60 47	92 52	90 38	82 44	99 51	97 49	63 53	37 50	11 45	12 44	43 51	21 49	55 50	5 55	65 37	14 58	46 48	93 41	38 42	45 43	62 51	86 52	94 50	25 57	48 48	59 48	42 42	47 42	28 51	18 50	87 52	91 44	6 53	23 45	84 38	19 50	26 48	3 54	66 54	34 49	68 49	80 48	15 44	17 43	1 43
